; benchmark generated from python API
(set-info :status unknown)
(declare-datatypes ((RealState 0)) (((RMk1 (rval1 Real)) (RMk2 (rval2 Real)))))
 (assert
 (exists ((|v11:0_st| RealState) (val!5020 Real) )(exists ((|v10:1_st| RealState) (val!5021 Real) )(exists ((|v9:2_st| RealState) (val!5022 Real) )(exists ((|v8:3_st| RealState) (val!5023 Real) )(forall ((|v7:4| Real) )(forall ((|v6:5| Real) )(forall ((|v5:6| Real) )(forall ((|v4:7| Real) )(exists ((|v3:8_st| RealState) (val!5024 Real) )(exists ((|v2:9_st| RealState) (val!5025 Real) )(exists ((|v1:10_st| RealState) (val!5026 Real) )(exists ((|v0:11_st| RealState) (val!5027 Real) )(let ((?x3071 (rval2 |v8:3_st|)))
 (let ((?x281 (* 14.0 ?x3071)))
 (let ((?x721 (rval2 |v0:11_st|)))
 (let ((?x1736 (* 13.0 ?x721)))
 (let ((?x1824 (+ (+ (* (- 16.0) (rval2 |v9:2_st|)) (* (- 11.0) (rval2 |v9:2_st|))) ?x1736)))
 (let ((?x2096 (- 10.0)))
 (let ((?x3138 (rval2 |v1:10_st|)))
 (let ((?x2421 (* 18.0 ?x3138)))
 (let ((?x1905 (+ (+ (+ (* 8.0 |v7:4|) (* (- 11.0) (rval2 |v11:0_st|))) (* 5.0 |v4:7|)) ?x2421)))
 (let ((?x273 (rval2 |v2:9_st|)))
 (let ((?x2517 (* 18.0 ?x273)))
 (let ((?x76 (+ (+ (+ (* (- 20.0) (rval2 |v11:0_st|)) (* (- 9.0) ?x273)) ?x2517) ?x2517)))
 (let ((?x3065 (+ (+ ?x3071 (* (- 1.0) (rval2 |v3:8_st|))) (* (- 8.0) (rval2 |v3:8_st|)))))
 (let (($x1795 (and (and (<= (+ ?x3065 (* 17.0 ?x3071)) 11.0) (<= ?x76 12.0)) (and (<= ?x1905 ?x2096) (<= (+ ?x1824 ?x281) 18.0)))))
 (let ((?x3147 (rval2 |v9:2_st|)))
 (let ((?x1159 (* 5.0 ?x3147)))
 (let ((?x1336 (+ (+ (+ (* (- 1.0) |v4:7|) (* 10.0 ?x3147)) ?x1159) (* ?x2096 (rval2 |v11:0_st|)))))
 (let ((?x1415 (- 15.0)))
 (let ((?x220 (rval2 |v11:0_st|)))
 (let ((?x2400 (* 20.0 ?x220)))
 (let ((?x2435 (+ (+ (+ (* 7.0 (rval2 |v3:8_st|)) (* (- 4.0) ?x3071)) ?x2400) (* 20.0 ?x3071))))
 (let ((?x2946 (- 12.0)))
 (let ((?x3044 (- 20.0)))
 (let ((?x744 (* ?x3044 |v7:4|)))
 (let ((?x2513 (+ (+ (+ (* (- 14.0) (rval2 |v10:1_st|)) (* 13.0 ?x220)) ?x744) (* ?x2096 ?x3071))))
 (let ((?x71 (- 9.0)))
 (let ((?x2887 (+ (+ (+ (* ?x3044 (rval2 |v10:1_st|)) (* ?x2946 ?x3071)) (* 16.0 |v5:6|)) (* 3.0 (rval2 |v10:1_st|)))))
 (let (($x1337 (and (and (<= ?x2887 ?x71) (<= ?x2513 ?x2946)) (and (<= ?x2435 ?x1415) (<= ?x1336 5.0)))))
 (let ((?x2572 (- 4.0)))
 (let ((?x3428 (* ?x2572 |v6:5|)))
 (let (($x1710 (<= (+ (+ (+ (* 15.0 ?x721) (* 3.0 ?x273)) (* ?x2572 ?x273)) ?x3428) ?x3044)))
 (let ((?x2134 (+ (+ (* 9.0 |v5:6|) (* 14.0 (rval2 |v3:8_st|))) (* 11.0 (rval2 |v3:8_st|)))))
 (let ((?x2397 (rval2 |v3:8_st|)))
 (let ((?x1291 (* 9.0 ?x2397)))
 (let ((?x1972 (+ (+ (+ (* (- 2.0) ?x3138) (* ?x2946 (rval2 |v10:1_st|))) (* 12.0 ?x3147)) ?x1291)))
 (let ((?x1349 (+ (+ (+ (* (- 14.0) ?x2397) (* 7.0 |v6:5|)) (* (- 16.0) ?x273)) (* ?x3044 ?x3147))))
 (let (($x1945 (and (and (<= ?x1349 ?x2946) (<= ?x1972 11.0)) (and (<= (+ ?x2134 (* (- 8.0) |v5:6|)) 10.0) $x1710))))
 (let ((?x104 (* 3.0 ?x220)))
 (let (($x148 (<= (+ (+ (+ (* ?x2946 |v7:4|) (* 14.0 ?x273)) (* (- 6.0) ?x3071)) ?x104) 15.0)))
 (let ((?x1633 (- 7.0)))
 (let ((?x1188 (+ (+ (+ (* (- 3.0) ?x721) (* (- 1.0) ?x273)) (* ?x71 ?x3147)) (* (- 1.0) (rval2 |v10:1_st|)))))
 (let ((?x1477 (- 5.0)))
 (let ((?x1537 (* 16.0 ?x273)))
 (let (($x605 (<= (+ (+ (+ (* (- 2.0) |v6:5|) (* 11.0 |v5:6|)) (* ?x1477 |v4:7|)) ?x1537) ?x1477)))
 (let ((?x2108 (+ (+ (+ (* (- 1.0) |v6:5|) (* 18.0 ?x721)) (* (- 3.0) ?x273)) (* ?x2946 ?x273))))
 (let (($x2879 (and (and (and (or (<= ?x2108 ?x3044) $x605) (and (<= ?x1188 ?x1633) $x148)) $x1945) (and $x1337 $x1795))))
 (let ((?x1647 (+ (+ (+ (* 12.0 ?x220) (* 17.0 ?x273)) (* ?x2572 (rval2 |v10:1_st|))) (* 8.0 ?x220))))
 (let ((?x1774 (- 11.0)))
 (let ((?x2692 (* 19.0 |v7:4|)))
 (let ((?x1171 (+ (+ (+ (* (- 13.0) ?x2397) (* ?x1477 ?x220)) (* 19.0 (rval2 |v10:1_st|))) ?x2692)))
 (let ((?x496 (- 19.0)))
 (let ((?x27 (* ?x496 ?x3147)))
 (let (($x2068 (<= (+ (+ (+ (* 8.0 |v7:4|) (* 10.0 ?x721)) (* 4.0 ?x3147)) ?x27) 18.0)))
 (let ((?x1709 (- 16.0)))
 (let (($x1962 (<= (+ (+ (+ (* 15.0 |v4:7|) (* ?x71 ?x3071)) (* 0.0 |v4:7|)) |v6:5|) ?x1709)))
 (let ((?x2250 (rval2 |v10:1_st|)))
 (let ((?x1287 (* ?x1477 ?x2250)))
 (let ((?x2387 (- 1.0)))
 (let ((?x16 (+ (+ (+ (* (- 17.0) |v6:5|) (* 3.0 ?x3071)) (* 17.0 ?x2397)) (* 9.0 ?x3071))))
 (let (($x1249 (or (<= ?x16 ?x2387) (<= (+ (+ (+ (* 12.0 ?x273) (* 15.0 ?x721)) ?x3147) ?x1287) 19.0))))
 (let ((?x1018 (* 4.0 ?x3071)))
 (let ((?x2095 (+ (+ (+ (* 18.0 |v7:4|) (* (- 14.0) ?x2250)) (* 20.0 ?x721)) ?x1018)))
 (let ((?x2749 (- 17.0)))
 (let (($x911 (<= (+ (+ (+ (* 16.0 |v4:7|) (* ?x1633 |v4:7|)) ?x1291) (* ?x2946 ?x721)) ?x2749)))
 (let (($x2462 (and (and (and $x911 (<= ?x2095 3.0)) $x1249) (and (and $x1962 $x2068) (and (<= ?x1171 ?x1774) (<= ?x1647 8.0))))))
 (let ((?x2503 (- 3.0)))
 (let (($x1850 (<= (+ (+ (+ (* 6.0 |v6:5|) (* 18.0 ?x3071)) (* 3.0 ?x2397)) ?x1287) ?x2503)))
 (let ((?x961 (- 2.0)))
 (let ((?x420 (* ?x961 ?x3138)))
 (let (($x2600 (<= (+ (+ (+ (* (- 8.0) |v7:4|) (* ?x961 |v6:5|)) (* 6.0 |v7:4|)) ?x420) 4.0)))
 (let ((?x1366 (* ?x71 |v4:7|)))
 (let ((?x1459 (+ (+ (+ (* 10.0 ?x3147) (* 9.0 |v5:6|)) (* (- 18.0) ?x2397)) ?x1366)))
 (let (($x2231 (<= (+ (+ (+ (* ?x2096 |v5:6|) (* 13.0 ?x220)) |v4:7|) (* ?x1633 ?x3147)) 1.0)))
 (let ((?x901 (+ (+ (+ (* 19.0 ?x3147) (* ?x961 ?x3071)) (* (- 14.0) ?x2397)) (* ?x71 ?x220))))
 (let ((?x1519 (* 19.0 ?x3147)))
 (let (($x2439 (<= (+ (+ (+ (* ?x2503 ?x273) (* 2.0 |v6:5|)) (* (- 18.0) ?x721)) ?x1519) ?x1477)))
 (let ((?x2072 (- 14.0)))
 (let ((?x3012 (* ?x2072 ?x721)))
 (let (($x3033 (<= (+ (+ (+ (* 4.0 ?x721) (* ?x1415 ?x220)) (* 10.0 ?x721)) ?x3012) 7.0)))
 (let (($x432 (<= (+ (+ (+ ?x1287 (* 19.0 ?x2250)) (* 2.0 ?x273)) (* ?x1774 ?x721)) ?x496)))
 (let (($x1532 (and (and (and $x432 $x3033) (or $x2439 (<= ?x901 ?x2096))) (and (and $x2231 (<= ?x1459 ?x1774)) (and $x2600 $x1850)))))
 (let (($x602 (<= (+ (+ (+ ?x27 (* ?x2572 |v5:6|)) (* (- 13.0) ?x3071)) (* ?x961 ?x2250)) 13.0)))
 (let ((?x1320 (+ (+ (+ (* ?x1774 ?x721) (* 5.0 ?x2397)) (* 15.0 ?x220)) (* ?x961 ?x273))))
 (let ((?x558 (+ (+ (+ (* ?x2387 |v5:6|) (* (- 18.0) ?x3138)) (* ?x1709 |v4:7|)) (* ?x2387 ?x220))))
 (let ((?x2647 (* 16.0 ?x2250)))
 (let (($x115 (<= (+ (+ (+ (* (- 18.0) |v4:7|) (* ?x496 ?x721)) (* ?x1415 ?x3147)) ?x2647) ?x2749)))
 (let (($x1080 (<= (+ (+ (+ (* ?x1774 ?x721) (* 16.0 ?x220)) ?x3012) (* ?x2946 |v5:6|)) ?x2749)))
 (let ((?x1319 (- 13.0)))
 (let ((?x1678 (* ?x1319 |v4:7|)))
 (let (($x140 (<= (+ (+ (+ (* 11.0 ?x3147) (* 17.0 ?x2250)) (* 18.0 ?x2397)) ?x1678) 0.0)))
 (let ((?x2551 (* 9.0 |v7:4|)))
 (let (($x715 (<= (+ (+ (+ (* 7.0 ?x273) (* 17.0 ?x721)) (* ?x2572 ?x2397)) ?x2551) 1.0)))
 (let (($x515 (<= (+ (+ (+ (* ?x2072 ?x273) (* ?x1774 |v7:4|)) ?x3428) (* (- 8.0) |v6:5|)) 7.0)))
 (let (($x999 (and (and (and $x515 $x715) (and $x140 $x1080)) (and (and $x115 (<= ?x558 8.0)) (and (<= ?x1320 12.0) $x602)))))
 (let ((?x1944 (* 4.0 |v7:4|)))
 (let (($x778 (<= (+ (+ (+ (* ?x1633 ?x3147) (* 0.0 |v6:5|)) (* ?x1319 ?x3071)) ?x1944) 0.0)))
 (let (($x1195 (<= (+ (+ (+ (* 13.0 ?x2250) (* ?x2572 |v5:6|)) |v4:7|) (* ?x2946 |v5:6|)) 3.0)))
 (let ((?x2676 (* 10.0 ?x3071)))
 (let (($x1725 (<= (+ (+ (+ (* ?x2946 ?x3138) (* 16.0 |v5:6|)) (* 4.0 |v6:5|)) ?x2676) 9.0)))
 (let (($x372 (<= (+ (+ (+ ?x1159 (* ?x1774 ?x3138)) (* 9.0 ?x2250)) (* 9.0 |v6:5|)) ?x1319)))
 (let ((?x977 (- 6.0)))
 (let ((?x3324 (+ (+ (+ (* ?x2946 |v4:7|) (* 5.0 ?x3138)) (* (- 8.0) ?x2250)) (* ?x2387 ?x3147))))
 (let ((?x2670 (+ (+ (+ (* (- 18.0) ?x2250) (* ?x1477 ?x3071)) (* 19.0 ?x220)) (* ?x71 ?x2250))))
 (let (($x2866 (<= (+ (+ (+ (* 17.0 ?x721) ?x2647) (* ?x2072 ?x273)) (* 17.0 ?x273)) ?x1319)))
 (let ((?x2465 (+ (+ (+ (* 12.0 ?x2250) (* ?x2503 |v7:4|)) (* 7.0 |v5:6|)) (* ?x2503 ?x2397))))
 (let (($x2520 (and (and (<= ?x2465 7.0) $x2866) (and (<= ?x2670 1.0) (<= ?x3324 ?x977)))))
 (let ((?x450 (* 11.0 ?x3147)))
 (let (($x3368 (<= (+ (+ (+ (* ?x977 ?x273) (* 9.0 |v4:7|)) (* 6.0 ?x3138)) ?x450) ?x1633)))
 (let (($x2644 (and $x3368 (<= (+ (+ (+ ?x3147 ?x281) (* 13.0 ?x2397)) (* 5.0 |v4:7|)) 9.0))))
 (let (($x587 (<= (+ (+ (+ (* ?x2503 ?x2250) (* ?x1709 ?x721)) (* 2.0 ?x220)) ?x1678) 16.0)))
 (let ((?x2116 (* ?x1415 |v4:7|)))
 (let (($x1743 (<= (+ (+ (+ (* ?x1319 ?x273) (* ?x1633 ?x220)) (* (- 8.0) ?x3138)) ?x2116) ?x1319)))
 (let (($x1569 (<= (+ (+ (+ ?x2517 (* ?x977 |v4:7|)) (* (- 18.0) |v4:7|)) (* 12.0 ?x2250)) 9.0)))
 (let ((?x1543 (+ (+ (+ (* (- 18.0) |v4:7|) (* 12.0 |v6:5|)) (* 8.0 ?x3071)) (* 19.0 ?x3138))))
 (let ((?x2301 (* ?x3044 |v6:5|)))
 (let (($x1023 (<= (+ (+ (+ (* ?x2946 ?x721) (* ?x1319 ?x3071)) (* ?x1415 |v6:5|)) ?x2301) ?x2503)))
 (let (($x650 (<= (+ (+ (+ (* ?x2503 ?x3071) ?x2400) (* 3.0 ?x273)) (* ?x3044 ?x220)) ?x2946)))
 (let (($x3325 (or (and (and $x650 $x1023) (and (<= ?x1543 18.0) $x1569)) (and (and $x1743 $x587) $x2644))))
 (let ((?x1940 (+ (+ (+ (* ?x2096 ?x2250) (* 19.0 ?x721)) (* ?x2072 |v7:4|)) (* 10.0 |v7:4|))))
 (let ((?x2648 (- 8.0)))
 (let ((?x833 (* ?x2648 ?x3138)))
 (let (($x1847 (<= (+ (+ (+ (* 17.0 ?x721) (* ?x1415 ?x273)) (* 7.0 ?x220)) ?x833) ?x2946)))
 (let ((?x3090 (* 19.0 |v5:6|)))
 (let (($x648 (<= (+ (+ (+ (* ?x1709 ?x2250) (* ?x1774 |v5:6|)) (* ?x3044 |v4:7|)) ?x3090) ?x1774)))
 (let ((?x1768 (+ (+ (+ (* 3.0 |v4:7|) (* ?x2648 ?x3071)) (* ?x1709 ?x220)) (* ?x2503 |v5:6|))))
 (let (($x555 (<= (+ (+ (+ ?x2301 (* 8.0 |v5:6|)) (* 6.0 ?x2397)) (* ?x2749 ?x3138)) 12.0)))
 (let (($x1058 (<= (+ (+ (+ |v7:4| (* 15.0 ?x3147)) (* ?x1477 ?x2397)) (* 17.0 ?x273)) ?x1477)))
 (let (($x135 (<= (+ (+ (+ (* (- 18.0) ?x3071) (* ?x2096 ?x3138)) (* 13.0 ?x3147)) ?x2116) ?x2072)))
 (let (($x836 (<= (+ (+ (+ (* 3.0 ?x3147) (* 16.0 |v6:5|)) ?x1018) (* 11.0 ?x721)) ?x2946)))
 (let (($x491 (and (or (and $x836 $x135) (and $x1058 $x555)) (and (and (<= ?x1768 ?x3044) $x648) (and $x1847 (<= ?x1940 ?x1319))))))
 (let (($x1322 (and (and $x491 $x3325) (and (and $x2520 (and (and $x372 $x1725) (and $x1195 $x778))) $x999))))
 (let (($x1161 (not (= |v0:11_st| (RMk1 val!5027)))))
 (let (($x1272 (not (= |v1:10_st| (RMk1 val!5026)))))
 (let (($x1346 (not (= |v2:9_st| (RMk1 val!5025)))))
 (let (($x2005 (not (= |v3:8_st| (RMk1 val!5024)))))
 (let (($x1367 (not (= |v8:3_st| (RMk1 val!5023)))))
 (let (($x3058 (not (= |v9:2_st| (RMk1 val!5022)))))
 (let (($x1294 (not (= |v10:1_st| (RMk1 val!5021)))))
 (let (($x2915 (not (= |v11:0_st| (RMk1 val!5020)))))
 (and $x2915 $x1294 $x3058 $x1367 $x2005 $x1346 $x1272 $x1161 (and $x1322 (and (and $x1532 $x2462) $x2879)))))))))))))))))))))))))))))))))))))))))))))))))))))))))))))))))))))))))))))))))))))))))))))))))))))))))))))))))))))))))))))))))))))))))))))))
 )
 )
 )
 )
 )
 )
 )
 )
 )
 )
 )
 )
(check-sat)
